Data path: /scratch/opt/lxu/CFLG/benchmarks/random_A
Instance: r_20_0.1_23.txt
Result path: /scratch/opt/lxu/CFLG/results/random_A
Solver: Gurobi
Time limit: 7200
Formulation: LEFPAI
Cover: Large
julia --project=. src/main.jl /scratch/opt/lxu/CFLG/benchmarks/random_A r_20_0.1_23.txt /scratch/opt/lxu/CFLG/results/random_A Gurobi 7200 LEFPAI Large
The latest version of Julia in the `release` channel is 1.11.6+0.x64.linux.gnu. You currently have `1.11.4+0.x64.linux.gnu` installed. Run:

  juliaup update

in your terminal shell to install Julia 1.11.6+0.x64.linux.gnu and update the `release` channel to that version.
/scratch/opt/lxu/CFLG/benchmarks/random_A Gurobi 7200.0 /scratch/opt/lxu/CFLG/results/random_A r_20_0.1_23.txt LEFPAI Large
/scratch/opt/lxu/CFLG/benchmarks/random_A/r_20_0.1_23.txt

 read graph
data loaded

problem_graph/original graph: node: 20/20 edge: 23/23 dlt: 1.2027549052001565 break_avg_len: 0.6013774526000782 break_max_len: 0.9478387600141464Vbar/V, Ebar/E(15, 20, 18, 23)
Set parameter TokenServer to value "solice01.zib.de"
Set parameter Threads to value 1
Set parameter OutputFlag to value 1
Gurobi Optimizer version 12.0.1 build v12.0.1rc0 (linux64 - "Debian GNU/Linux 12 (bookworm)")

CPU model: Intel(R) Xeon(R) Gold 5122 CPU @ 3.60GHz, instruction set [SSE2|AVX|AVX2|AVX512]
Thread count: 8 physical cores, 16 logical processors, using up to 1 threads

Non-default parameters:
Threads  1

Optimize a model with 41 rows, 66 columns and 110 nonzeros
Model fingerprint: 0x76e85b49
Coefficient statistics:
  Matrix range     [1e+00, 1e+00]
  Objective range  [1e+00, 1e+00]
  Bounds range     [1e+00, 1e+00]
  RHS range        [1e+00, 1e+00]
Presolve removed 22 rows and 29 columns
Presolve time: 0.00s
Presolved: 19 rows, 37 columns, 59 nonzeros

Iteration    Objective       Primal Inf.    Dual Inf.      Time
       0    2.2000000e+01   1.100000e+01   0.000000e+00      0s
       7    1.5000000e+01   0.000000e+00   0.000000e+00      0s

Solved in 7 iterations and 0.00 seconds (0.00 work units)
Optimal objective  1.500000000e+01

User-callback calls 86, time in user-callback 0.00 sec
elapsed CPU time: 1.299724 seconds
Set parameter TokenServer to value "solice01.zib.de"
Set parameter Threads to value 1
Set parameter OutputFlag to value 1
Set parameter MIPGap to value 0.0001
Set parameter TimeLimit to value 7198.700276

 more cuts: false 1.2027549052001565 false
is_attach:trueformulation:LEFPAI0 22 19

 model loaded

Gurobi Optimizer version 12.0.1 build v12.0.1rc0 (linux64 - "Debian GNU/Linux 12 (bookworm)")

CPU model: Intel(R) Xeon(R) Gold 5122 CPU @ 3.60GHz, instruction set [SSE2|AVX|AVX2|AVX512]
Thread count: 8 physical cores, 16 logical processors, using up to 1 threads

Non-default parameters:
TimeLimit  7198.700276
Threads  1

Optimize a model with 405 rows, 327 columns and 1057 nonzeros
Model fingerprint: 0xc6c65dbb
Model has 220 simple general constraints
  220 INDICATOR
Variable types: 63 continuous, 264 integer (264 binary)
Coefficient statistics:
  Matrix range     [3e-01, 1e+00]
  Objective range  [1e+00, 1e+00]
  Bounds range     [3e-01, 9e-01]
  RHS range        [3e-01, 3e+00]
  GenCon rhs range [4e-03, 1e+00]
  GenCon coe range [1e+00, 1e+00]
Presolve added 20 rows and 0 columns
Presolve removed 0 rows and 93 columns
Presolve time: 0.03s
Presolved: 425 rows, 234 columns, 2137 nonzeros
Variable types: 37 continuous, 197 integer (197 binary)
Found heuristic solution: objective 11.0000000
Found heuristic solution: objective 9.0000000
Found heuristic solution: objective 8.0000000

Root relaxation: objective 3.113575e+00, 199 iterations, 0.00 seconds (0.00 work units)

    Nodes    |    Current Node    |     Objective Bounds      |     Work
 Expl Unexpl |  Obj  Depth IntInf | Incumbent    BestBd   Gap | It/Node Time

     0     0    3.11357    0   45    8.00000    3.11357  61.1%     -    0s
H    0     0                       7.0000000    3.11357  55.5%     -    0s
H    0     0                       6.0000000    3.11357  48.1%     -    0s
H    0     0                       5.0000000    3.11357  37.7%     -    0s
     0     0    4.00000    0   65    5.00000    4.00000  20.0%     -    0s
     0     0    4.00000    0   62    5.00000    4.00000  20.0%     -    0s
H    0     0                       4.0000000    4.00000  0.00%     -    0s
     0     0    4.00000    0   62    4.00000    4.00000  0.00%     -    0s

Cutting planes:
  Gomory: 3
  Cover: 2
  Implied bound: 6
  Clique: 2
  MIR: 4
  RLT: 5
  Relax-and-lift: 3

Explored 1 nodes (624 simplex iterations) in 0.07 seconds (0.04 work units)
Thread count was 1 (of 16 available processors)

Solution count 7: 4 5 6 ... 11

Optimal solution found (tolerance 1.00e-04)
Best objective 4.000000000000e+00, best bound 4.000000000000e+00, gap 0.0000%

User-callback calls 827, time in user-callback 0.00 sec

 sepatime0 0 0
4.0
Stat(MathOptInterface.OPTIMAL, 4.0, 4.0, 0.0, 0.0, 1.299724, 0.06536006927490234, 1, Main.CFLG.LEFPAI, "", #undef)
